\ File written by Highs .lp filereader
minimize
 obj: +1 x1 +8 x2 +12 x3 +4 x4 +1 x5 +1 x6 +2 x7 +8 x8 +6 x9 +4 x10 +4 x11 +1 x12 +12 x13 +8 x14 +8 x15 +12 x16 +1 x17 +4 x18 +4 x19 +1 x20 +6 x21 +4 x22 +4 x23 +6 x24 +6 x25 +4 x26 +4 x27 +6 x28 +1 x29 +4 x30 +4 x31 +1 x32 +12 x33 +8 x34 +6 x35 +4 x36 +8 x37 +12 x38 +6 x39 +4 x40 +8 x41 +12 x42 +4 x43 +6 x44 +2 x45 +8 x46 +0 x47 +0 x48 +0 x49 +0 x50 +0 x51 +0 x52 +0 x53 +0 x54 +0 x55 
st
 con0: +1 x0 +8 x1 +12 x2 +4 x3 +2 x6 +8 x7 +6 x8 +4 x18 +1 x19 +6 x20 +4 x21 = +1
 con1: +8 x1 +24 x2 +12 x3 +4 x4 +8 x7 +12 x8 +12 x9 +4 x18 +12 x20 +4 x21 +12 x22 +12 x23 +4 x30 +24 x32 +8 x33 +12 x34 +4 x35 +24 x36 +24 x37 = +4
 con2: +12 x2 +12 x3 +6 x4 +6 x5 +6 x8 +12 x9 +12 x12 +24 x14 +12 x15 +6 x16 +12 x17 +6 x20 +12 x22 +6 x23 +6 x24 +12 x26 +6 x27 +6 x28 +12 x29 +12 x32 +6 x34 +24 x36 +12 x37 +6 x38 +24 x40 +12 x41 +12 x42 +6 x43 +12 x44 +24 x45 = +6
 con3: +2 x6 +8 x7 +6 x8 +4 x9 +1 x19 +4 x21 +6 x23 +1 x31 +8 x33 +4 x35 +12 x37 = +1
 con4: +2 x0 +8 x1 +12 x2 +2 x6 +8 x7 +8 x10 +2 x11 +12 x12 +8 x13 +8 x14 +12 x15 +8 x18 +2 x19 +12 x24 +8 x25 = +2
 con5: +8 x1 +24 x2 +12 x3 +8 x7 +12 x8 +4 x10 +24 x12 +8 x13 +24 x14 +24 x15 +4 x16 +12 x17 +4 x18 +12 x20 +4 x21 +12 x24 +4 x25 +12 x26 +12 x27 = +4
 con6: +2 x6 +8 x7 +6 x8 +1 x11 +8 x13 +12 x15 +4 x17 +1 x19 +4 x21 +4 x25 +6 x27 = +1
 con7: +4 x5 +8 x7 +12 x8 +12 x9 +8 x13 +24 x15 +12 x17 +4 x21 +12 x23 +4 x25 +12 x27 +12 x29 +8 x33 +4 x35 +24 x37 +4 x39 +24 x41 +12 x43 +24 x45 = +4
 con8: +1 x0 +8 x1 +2 x6 +6 x20 +4 x21 +4 x22 +6 x23 +4 x30 +1 x31 +12 x32 +8 x33 = +1
 con9: +1 x0 +8 x1 +2 x6 +4 x10 +1 x11 +12 x12 +8 x13 +6 x20 +4 x21 +4 x26 +6 x27 = +1
 con10: +8 x1 +4 x10 +24 x12 +8 x13 +12 x20 +4 x21 +12 x22 +12 x23 +12 x26 +12 x27 +4 x28 +12 x29 +4 x30 +24 x32 +8 x33 +12 x38 +4 x39 +24 x40 +24 x41 = +4
 con11: +2 x6 +1 x11 +8 x13 +4 x21 +6 x23 +6 x27 +4 x29 +1 x31 +8 x33 +4 x39 +12 x41 = +1
 con12: +2 x0 +8 x1 +12 x2 +2 x6 +8 x7 +8 x18 +2 x19 +8 x30 +2 x31 +12 x32 +8 x33 +12 x34 +8 x35 +8 x36 +12 x37 = +2
 con13: +2 x0 +8 x1 +2 x6 +8 x10 +2 x11 +12 x12 +8 x13 +8 x30 +2 x31 +12 x32 +8 x33 +12 x38 +8 x39 +8 x40 +12 x41 = +2
 con14: +1 x0 +4 x10 +1 x11 +4 x18 +1 x19 +6 x24 +4 x25 +4 x30 +1 x31 +6 x34 +4 x35 +6 x38 +4 x39 +4 x42 +6 x43 = +1
 con15: +8 x1 +24 x2 +8 x7 +8 x10 +24 x12 +8 x13 +24 x14 +24 x15 +8 x18 +24 x24 +8 x25 +8 x30 +24 x32 +8 x33 +24 x34 +8 x35 +24 x36 +24 x37 +24 x38 +8 x39 +24 x40 +24 x41 +24 x42 +24 x43 +8 x44 +24 x45 = +8
 con16: +2 x6 +8 x7 +2 x11 +8 x13 +12 x15 +2 x19 +8 x25 +2 x31 +8 x33 +8 x35 +12 x37 +8 x39 +12 x41 +12 x43 +8 x45 = +2
 con17: +1 x2 -1 x34 -1 x46 = +0
 con18: +1 x3 -1 x36 -1 x47 = +0
 con19: +1 x7 -1 x35 -1 x48 = +0
 con20: +1 x8 -1 x37 -1 x49 = +0
 con21: +1 x12 -1 x38 -1 x50 = +0
 con22: +1 x15 -1 x43 -1 x51 = +0
 con23: +1 x21 -1 x33 -1 x52 = +0
 con24: +1 x26 -1 x40 -1 x53 = +0
 con25: +1 x27 -1 x41 -1 x54 = +0
bounds
 +0 <= x0 <= +1
 +0 <= x1 <= +0
 +0 <= x2 <= +1
 +0 <= x3 <= +1
 +0 <= x4 <= +0
 +0 <= x5 <= +0
 +0 <= x6 <= +0
 +0 <= x7 <= +0
 +0 <= x8 <= +1
 +0 <= x9 <= +0
 +0 <= x10 <= +0
 +0 <= x11 <= +0
 +0 <= x12 <= +1
 +0 <= x13 <= +0
 +0 <= x14 <= +0
 +0 <= x15 <= +1
 +0 <= x16 <= +0
 +0 <= x17 <= +0
 +0 <= x18 <= +0
 +0 <= x19 <= +0
 +0 <= x20 <= +0
 +0 <= x21 <= +1
 +0 <= x22 <= +1
 +0 <= x23 <= +0
 +0 <= x24 <= +1
 +0 <= x25 <= +0
 +0 <= x26 <= +1
 +0 <= x27 <= +1
 +0 <= x28 <= +0
 +0 <= x29 <= +0
 +0 <= x30 <= +0
 +0 <= x31 <= +0
 +0 <= x32 <= +0
 +0 <= x33 <= +1
 +0 <= x34 <= +1
 +0 <= x35 <= +0
 +0 <= x36 <= +1
 +0 <= x37 <= +1
 +0 <= x38 <= +1
 +0 <= x39 <= +0
 +0 <= x40 <= +1
 +0 <= x41 <= +1
 +0 <= x42 <= +0
 +0 <= x43 <= +1
 +0 <= x44 <= +0
 +0 <= x45 <= +0
 +0 <= x46 <= +0
 +0 <= x47 <= +0
 +0 <= x48 <= +0
 +0 <= x49 <= +0
 +0 <= x50 <= +0
 +0 <= x51 <= +0
 +0 <= x52 <= +0
 +0 <= x53 <= +0
 +0 <= x54 <= +0
binary
general
semi
end
